results/res_prop_muc/res_Cimatti_mathsat_cores/QF_UF/SEQ018_size6.smt.smt2.out

real	0m8.335s
user	0m7.954s
sys	0m0.344s
