results/res_prop_muc/res_Cimatti_mathsat_cores/QF_UF/SEQ018_size6.smt.smt2.res
unsat
( _c0
  _c1
  _c10
  _c100
  _c102
  _c103
  _c105
  _c106
  _c107
  _c109
  _c11
  _c111
  _c112
  _c113
  _c114
  _c116
  _c118
  _c119
  _c12
  _c120
  _c121
  _c122
  _c124
  _c125
  _c126
  _c127
  _c13
  _c131
  _c132
  _c133
  _c136
  _c138
  _c139
  _c14
  _c142
  _c143
  _c145
  _c148
  _c149
  _c15
  _c150
  _c152
  _c153
  _c155
  _c156
  _c157
  _c158
  _c159
  _c16
  _c160
  _c161
  _c162
  _c163
  _c164
  _c165
  _c167
  _c168
  _c169
  _c17
  _c174
  _c175
  _c179
  _c18
  _c181
  _c185
  _c186
  _c189
  _c19
  _c190
  _c192
  _c193
  _c195
  _c196
  _c198
  _c199
  _c2
  _c20
  _c200
  _c203
  _c204
  _c205
  _c206
  _c207
  _c208
  _c21
  _c210
  _c211
  _c217
  _c22
  _c222
  _c224
  _c225
  _c226
  _c227
  _c229
  _c23
  _c230
  _c231
  _c232
  _c233
  _c234
  _c235
  _c236
  _c237
  _c238
  _c239
  _c24
  _c240
  _c241
  _c242
  _c243
  _c244
  _c245
  _c246
  _c247
  _c248
  _c249
  _c25
  _c250
  _c251
  _c253
  _c26
  _c260
  _c261
  _c262
  _c263
  _c264
  _c266
  _c267
  _c268
  _c269
  _c27
  _c270
  _c275
  _c276
  _c278
  _c28
  _c280
  _c281
  _c282
  _c283
  _c29
  _c290
  _c291
  _c292
  _c293
  _c294
  _c3
  _c30
  _c300
  _c301
  _c302
  _c303
  _c304
  _c305
  _c306
  _c308
  _c309
  _c31
  _c310
  _c311
  _c314
  _c315
  _c316
  _c32
  _c320
  _c326
  _c327
  _c328
  _c329
  _c33
  _c330
  _c332
  _c333
  _c334
  _c335
  _c338
  _c339
  _c34
  _c340
  _c344
  _c345
  _c35
  _c350
  _c357
  _c358
  _c359
  _c36
  _c360
  _c361
  _c362
  _c363
  _c364
  _c365
  _c366
  _c367
  _c368
  _c369
  _c37
  _c371
  _c372
  _c373
  _c374
  _c375
  _c376
  _c378
  _c379
  _c38
  _c380
  _c381
  _c382
  _c383
  _c385
  _c386
  _c387
  _c388
  _c389
  _c39
  _c390
  _c391
  _c392
  _c393
  _c394
  _c395
  _c396
  _c397
  _c399
  _c4
  _c40
  _c400
  _c401
  _c402
  _c403
  _c404
  _c405
  _c406
  _c407
  _c408
  _c409
  _c41
  _c410
  _c411
  _c412
  _c413
  _c414
  _c415
  _c417
  _c418
  _c419
  _c42
  _c420
  _c421
  _c422
  _c423
  _c424
  _c425
  _c426
  _c427
  _c429
  _c430
  _c431
  _c432
  _c433
  _c435
  _c436
  _c437
  _c438
  _c439
  _c44
  _c442
  _c443
  _c444
  _c445
  _c446
  _c447
  _c448
  _c449
  _c45
  _c450
  _c451
  _c452
  _c454
  _c455
  _c456
  _c457
  _c458
  _c459
  _c46
  _c460
  _c461
  _c462
  _c463
  _c464
  _c465
  _c466
  _c467
  _c468
  _c469
  _c47
  _c471
  _c472
  _c473
  _c474
  _c475
  _c478
  _c479
  _c48
  _c480
  _c481
  _c485
  _c486
  _c487
  _c488
  _c489
  _c49
  _c491
  _c492
  _c493
  _c494
  _c495
  _c496
  _c497
  _c498
  _c499
  _c5
  _c50
  _c500
  _c501
  _c503
  _c504
  _c505
  _c507
  _c508
  _c509
  _c51
  _c510
  _c511
  _c514
  _c515
  _c516
  _c517
  _c52
  _c521
  _c522
  _c523
  _c528
  _c529
  _c53
  _c530
  _c531
  _c532
  _c534
  _c535
  _c536
  _c537
  _c538
  _c54
  _c540
  _c541
  _c543
  _c544
  _c545
  _c546
  _c547
  _c55
  _c550
  _c551
  _c552
  _c553
  _c557
  _c558
  _c559
  _c56
  _c564
  _c565
  _c571
  _c577
  _c579
  _c58
  _c580
  _c581
  _c582
  _c583
  _c586
  _c587
  _c588
  _c589
  _c59
  _c593
  _c594
  _c595
  _c6
  _c60
  _c600
  _c601
  _c607
  _c61
  _c62
  _c620
  _c621
  _c622
  _c623
  _c624
  _c625
  _c627
  _c628
  _c629
  _c63
  _c630
  _c631
  _c632
  _c634
  _c635
  _c636
  _c637
  _c638
  _c639
  _c641
  _c642
  _c643
  _c644
  _c645
  _c646
  _c648
  _c649
  _c65
  _c650
  _c651
  _c652
  _c653
  _c655
  _c656
  _c657
  _c658
  _c659
  _c66
  _c660
  _c662
  _c663
  _c664
  _c665
  _c666
  _c667
  _c669
  _c67
  _c670
  _c671
  _c672
  _c673
  _c674
  _c677
  _c678
  _c68
  _c680
  _c681
  _c685
  _c686
  _c688
  _c69
  _c692
  _c694
  _c695
  _c699
  _c7
  _c70
  _c701
  _c702
  _c705
  _c708
  _c709
  _c713
  _c715
  _c719
  _c72
  _c720
  _c726
  _c729
  _c73
  _c733
  _c736
  _c737
  _c74
  _c740
  _c741
  _c742
  _c743
  _c744
  _c746
  _c747
  _c75
  _c750
  _c751
  _c752
  _c753
  _c754
  _c755
  _c756
  _c757
  _c758
  _c759
  _c76
  _c760
  _c761
  _c77
  _c78
  _c79
  _c8
  _c81
  _c82
  _c83
  _c84
  _c85
  _c88
  _c89
  _c9
  _c90
  _c91
  _c93
  _c95
  _c96
  _c97
  _c99 )
